
Log started (V11.0.0) Sun Apr 13 13:00:09 2008

Tried aggregator 1 time.
Reduced MIP has 120 rows, 2001 columns, and 4020 nonzeros.
Presolve time =    0.02 sec.
Clique table members: 100.
MIP emphasis: balance optimality and feasibility.
MIP search method: dynamic search.
Parallel mode: none, using 1 thread.
Root relaxation solution time =    0.05 sec.

        Nodes                                         Cuts/
   Node  Left     Objective  IInf  Best Integer     Best Node    ItCnt     Gap

*     0+    0                         5293.0000       27.1090      365   99.49%
*     0+    0                           46.0000       27.1090      365   41.07%
      0     0       28.0000    29       46.0000      Fract: 6      386   39.13%
*     0+    0                           45.0000       28.0000      386   37.78%
      0     0       28.0000    29       45.0000       Cuts: 7      399   37.78%
*     0+    0                           43.0000       28.0000      399   34.88%
      0     0       28.0000    34       43.0000       Cuts: 2      425   34.88%
*     0+    0                           42.0000       28.0000      425   33.33%
*     0+    0                           41.0000       28.0000      426   31.71%
*     0+    0                           40.0000       28.0000      426   30.00%
*     0+    0                           39.0000       28.0000      426   28.21%
*     0+    0                           38.0000       28.0000      426   26.32%

Repeating presolve.
Tried aggregator 1 time.
MIP Presolve eliminated 0 rows and 1293 columns.
Reduced MIP has 120 rows, 708 columns, and 1434 nonzeros.
Tried aggregator 1 time.
Represolve time =    0.01 sec.
Clique table members: 328.
MIP emphasis: balance optimality and feasibility.
MIP search method: dynamic search.
Parallel mode: none, using 1 thread.
Root relaxation solution time =    0.00 sec.

        Nodes                                         Cuts/
   Node  Left     Objective  IInf  Best Integer     Best Node    ItCnt     Gap

      0     0       28.0000    37       38.0000       28.0000      193   26.32%
*     0+    0                           37.0000       28.0000      193   24.32%
*     0+    0                           36.0000       28.0000      193   22.22%
      0     2       28.0000    33       36.0000       28.0000      193   22.22%
*    40+   31                           35.0000       28.0000      757   20.00%
*    80+   36                           33.0000       29.0000     1452   12.12%
    100    56       30.0000    28       33.0000       29.0000     1588   12.12%
*   180+   82                           32.0000       29.0000     2530    9.37%
    200   100       30.0000    43       32.0000       29.0000     2812    9.37%
    300   174       30.0000    46       32.0000       30.0000     4130    6.25%
    400   247       31.0000    35       32.0000       30.0000     6098    6.25%
    500   298       31.0000    12       32.0000       30.0000     9546    6.25%
*   560   169      integral     0       31.0000       30.0000    10487    3.23%

Clique cuts applied:  4
Cover cuts applied:  117
Flow cuts applied:  2
Mixed integer rounding cuts applied:  18
Zero-half cuts applied:  7
Gomory fractional cuts applied:  7

Solution pool: 15 solutions saved.

MIP - Integer optimal solution:  Objective = 3.1000000000e+001
Solution time =    3.53 sec.  Iterations = 14333  Nodes = 582 (129)


Incumbent solution
Variable Name           Solution Value
Cmax                         31.000000
X_1_5                         1.000000
X_2_11                        1.000000
X_3_14                        1.000000
X_4_9                         1.000000
X_5_7                         1.000000
X_6_13                        1.000000
X_7_14                        1.000000
X_8_10                        1.000000
X_9_17                        1.000000
X_10_20                       1.000000
X_11_12                       1.000000
X_12_6                        1.000000
X_13_9                        1.000000
X_14_19                       1.000000
X_15_11                       1.000000
X_16_2                        1.000000
X_17_7                        1.000000
X_18_11                       1.000000
X_19_13                       1.000000
X_20_20                       1.000000
X_21_1                        1.000000
X_22_2                        1.000000
X_23_5                        1.000000
X_24_6                        1.000000
X_25_1                        1.000000
X_26_4                        1.000000
X_27_17                       1.000000
X_28_9                        1.000000
X_29_6                        1.000000
X_30_19                       1.000000
X_31_3                        1.000000
X_32_16                       1.000000
X_33_13                       1.000000
X_34_15                       1.000000
X_35_18                       1.000000
X_36_20                       1.000000
X_37_19                       1.000000
X_38_3                        1.000000
X_39_9                        1.000000
X_40_16                       1.000000
X_41_3                        1.000000
X_42_3                        1.000000
X_43_8                        1.000000
X_44_5                        1.000000
X_45_9                        1.000000
X_46_3                        1.000000
X_47_15                       1.000000
X_48_18                       1.000000
X_49_7                        1.000000
X_50_13                       1.000000
X_51_18                       1.000000
X_52_8                        1.000000
X_53_15                       1.000000
X_54_1                        1.000000
X_55_3                        1.000000
X_56_8                        1.000000
X_57_17                       1.000000
X_58_3                        1.000000
X_59_2                        1.000000
X_60_5                        1.000000
X_61_6                        1.000000
X_62_16                       1.000000
X_63_20                       1.000000
X_64_9                        1.000000
X_65_20                       1.000000
X_66_12                       1.000000
X_67_16                       1.000000
X_68_19                       1.000000
X_69_12                       1.000000
X_70_2                        1.000000
X_71_10                       1.000000
X_72_19                       1.000000
X_73_2                        1.000000
X_74_7                        1.000000
X_75_5                        1.000000
X_76_18                       1.000000
X_77_2                        1.000000
X_78_17                       1.000000
X_79_16                       1.000000
X_80_6                        1.000000
X_81_6                        1.000000
X_82_8                        1.000000
X_83_2                        1.000000
X_84_17                       1.000000
X_85_13                       1.000000
X_86_18                       1.000000
X_87_10                       1.000000
X_88_18                       1.000000
X_89_11                       1.000000
X_90_2                        1.000000
X_91_13                       1.000000
X_92_5                        1.000000
X_93_4                        1.000000
X_94_10                       1.000000
X_95_16                       1.000000
X_96_11                       1.000000
X_97_14                       1.000000
X_98_15                       1.000000
X_99_11                       1.000000
X_100_20                      1.000000
All other variables in the range 1-2001 are 0.
